webassembly/ejemplos_dzn/folder13_json_83.dzn
TERM = { '.', 's(2)', 's(5)', 's(4)', 'in_1', 'local_0', 'local_1', 'in_2', 'in_3', 'in_4', 's(8)', 's(6)', 's(1)', 's(0)', 's(7)', 'in_5', 's(3)', 'in_0'};
null = '.';
s = 13;
n = 12;
ndeps = 5;
max_registers_sz = 4;
NR = 1;
registers = [|'local_0', 'local_1'|];
dependencies = [|'call[function_index(0)]_1', 'i32.store_2', |'i32.store_2', 'call[function_index(1)]_3', |'call[function_index(1)]_3', 'call[function_index(2)]_5', |'call[function_index(2)]_5', 'i32.store8_11', |'i32.store8_11', 'i32.load_12'|];
GET_ENUM = { GET1, GET2, GET3, GET4, GET5};
SET_ENUM = { SET1, SET2, SET3, SET4, SET5};
TEE_ENUM = { TEE1, TEE2, TEE3, TEE4, TEE5};
N = 10;
OP = { 'call[function_index(0)]_1', 'call[function_index(1)]_3', 'i32.add_0', 'call[function_index(2)]_5', 'i32.store_2', 'i32.add_1', 'i32.add_2', 'i32.store8_11', 'i32.load_12', 'local.get_0' };
in_ops = [2, 0, 2, 3, 2, 2, 2, 2, 1, 0 ];
out_ops = [2, 2, 1, 1, 0, 1, 1, 0, 1, 1 ];
in1 = ['local_1', '.', 's(3)', 's(4)', 's(1)', 's(5)', 'local_0', 's(7)', 'in_5', '.' ];
in2 = ['in_0', '.', 's(2)', 'in_1', 's(0)', 'in_3', 's(6)', 'in_4', '.', '.' ];
in3 = ['.', '.', '.', 'in_2', '.', '.', '.', '.', '.', '.' ];
out1 = ['s(1)', 's(3)', 's(4)', 's(5)', '.', 's(6)', 's(7)', '.', 's(8)', 'local_1' ];
out2 = ['s(0)', 's(2)', '.', '.', '.', '.', '.', '.', '.', '.' ];
out3 = ['.', '.', '.', '.', '.', '.', '.', '.', '.', '.' ];
comm = [false, false, true, false, false, true, true, false, false, false ];
gas = [1, 1, 1, 1, 1, 1, 1, 1, 1, 1 ];
sz = [1, 1, 1, 1, 1, 1, 1, 1, 1, 1 ];
stor = [true, true, false, true, true, false, false, true, false, false ];
lb = [ 1, 1, 1, 1, 1, 1, 1, 1, 1, 1 ];
ub = [ 13, 13, 13, 13, 13, 13, 13, 13, 13, 13 ];
startstack = [ 'in_0', 'in_1', 'in_2', 'in_3', 'in_4', 'in_5', null, null, null, null, null, null ];
endstack = [ 's(8)', null, null, null, null, null, null, null, null, null, null, null ];
